423736
82,16,81,75,7,6,15,69,32,50,27,83,72,17,80,76,26,10,1,45,35,48,23,38,11,30,42,29,73,36,41,78,56,20,2,31,79,59,5,74,25,77,40,43,52,46,44,53,63,4,13,22,12,19,8,51,67,64,37,60,18,58,65,62,70,14,54,28,33,55,3,49,47,34,21,39,66,57,61,68,24,9,71